N = 6;

pezzi = [|
3,6,7,6|
9,3,1,7|
6,6,2,8|
2,7,8,8|
7,7,8,9|
1,0,0,0|
0,4,9,6|
0,2,1,3|
7,1,3,9|
0,3,0,4|
8,8,6,0|
8,6,6,3|
2,9,1,7|
9,8,6,9|
4,9,4,6|
6,4,5,6|
6,9,3,2|
1,6,5,6|
8,6,6,0|
1,0,9,6|
3,8,8,9|
6,9,7,0|
0,1,8,2|
1,6,6,9|
8,9,6,1|
6,6,4,6|
6,1,9,2|
1,9,0,1|
5,2,2,9|
4,9,7,7|
9,2,9,2|
6,6,5,8|
7,4,2,3|
5,3,6,4|
9,9,1,4|
0,0,5,6|];
